c generated by Julia
p edge 29 203
e 1 2
e 1 3
e 2 3
e 1 4
e 2 4
e 1 5
e 2 5
e 1 6
e 2 6
e 5 6
e 1 7
e 2 7
e 3 7
e 5 7
e 1 8
e 2 8
e 4 8
e 6 8
e 1 9
e 3 9
e 4 9
e 1 10
e 6 10
e 7 10
e 8 10
e 9 10
e 1 11
e 4 11
e 5 11
e 8 11
e 9 11
e 10 11
e 1 12
e 3 12
e 5 12
e 6 12
e 11 12
e 1 13
e 3 13
e 6 13
e 7 13
e 9 13
e 10 13
e 1 14
e 4 14
e 5 14
e 7 14
e 9 14
e 12 14
e 1 15
e 3 15
e 4 15
e 8 15
e 12 15
e 13 15
e 14 15
e 2 16
e 4 16
e 7 16
e 10 16
e 11 16
e 12 16
e 14 16
e 2 17
e 3 17
e 5 17
e 9 17
e 11 17
e 12 17
e 13 17
e 16 17
e 2 18
e 3 18
e 8 18
e 9 18
e 10 18
e 14 18
e 15 18
e 16 18
e 17 18
e 2 19
e 4 19
e 5 19
e 6 19
e 10 19
e 13 19
e 15 19
e 16 19
e 17 19
e 18 19
e 2 20
e 4 20
e 6 20
e 7 20
e 9 20
e 13 20
e 14 20
e 16 20
e 2 21
e 3 21
e 5 21
e 7 21
e 8 21
e 11 21
e 15 21
e 18 21
e 20 21
e 2 22
e 3 22
e 4 22
e 6 22
e 8 22
e 9 22
e 12 22
e 17 22
e 20 22
e 5 23
e 6 23
e 9 23
e 10 23
e 12 23
e 14 23
e 15 23
e 18 23
e 19 23
e 20 23
e 21 23
e 22 23
e 7 24
e 8 24
e 10 24
e 11 24
e 12 24
e 13 24
e 15 24
e 16 24
e 17 24
e 20 24
e 21 24
e 22 24
e 23 24
e 5 25
e 6 25
e 8 25
e 9 25
e 11 25
e 13 25
e 14 25
e 17 25
e 18 25
e 20 25
e 21 25
e 3 26
e 4 26
e 6 26
e 11 26
e 12 26
e 13 26
e 15 26
e 16 26
e 19 26
e 20 26
e 21 26
e 25 26
e 4 27
e 5 27
e 7 27
e 8 27
e 13 27
e 14 27
e 15 27
e 17 27
e 19 27
e 22 27
e 24 27
e 25 27
e 3 28
e 6 28
e 7 28
e 8 28
e 10 28
e 12 28
e 14 28
e 16 28
e 18 28
e 22 28
e 25 28
e 26 28
e 27 28
e 3 29
e 4 29
e 5 29
e 7 29
e 9 29
e 10 29
e 11 29
e 19 29
e 21 29
e 22 29
e 23 29
e 26 29
e 27 29
e 28 29
